NAME 
ROWS
 N  OBJ
 L  R0      
 E  R1      
 E  R2      
 E  R3      
 E  R4      
 E  R5      
 E  R6      
 E  R7      
 E  R8      
 E  R9      
 E  R10     
COLUMNS
    MARKER    'MARKER'                 'INTORG'
    I0(5)     OBJ       -4
    I0(5)     R0        -85
    I0(5)     R1        1
    I0(5)     R3        3
    I0(5)     R4        17
    I0(5)     R10       1
    I1(6)     OBJ       3
    I1(6)     R0        -36
    I1(6)     R1        19
    I1(6)     R3        10
    I1(6)     R4        11
    I1(6)     R5        16
    I1(6)     R10       1
    I2(5)     OBJ       -189
    I2(5)     R0        199
    I2(5)     R2        11
    I2(5)     R4        14
    I2(5)     R5        4
    I2(5)     R10       1
    I3(7)     OBJ       -109
    I3(7)     R0        100
    I3(7)     R1        10
    I3(7)     R2        16
    I3(7)     R3        10
    I3(7)     R4        2
    I3(7)     R5        18
    I3(7)     R10       1
    I4(7)     OBJ       171
    I4(7)     R0        -34
    I4(7)     R1        4
    I4(7)     R2        11
    I4(7)     R3        8
    I4(7)     R4        5
    I4(7)     R5        19
    I4(7)     R10       1
    MARKER    'MARKER'                 'INTEND'
    C5(8)     OBJ       5
    C5(8)     R0        -4
    C5(8)     R1        10
    C5(8)     R2        14
    C5(8)     R3        6
    C5(8)     R4        18
    C5(8)     R5        11
    C5(8)     R7        18
    C5(8)     R8        13
    C6(8)     R0        1
    C6(8)     R1        19
    C6(8)     R2        12
    C6(8)     R3        16
    C6(8)     R4        1
    C6(8)     R6        8
    C6(8)     R7        18
    C6(8)     R8        9
    C7(7)     OBJ       -9
    C7(7)     R0        -5
    C7(7)     R1        19
    C7(7)     R2        6
    C7(7)     R3        15
    C7(7)     R5        12
    C7(7)     R8        9
    C7(7)     R9        9
    C8(7)     OBJ       -5
    C8(7)     R0        -10
    C8(7)     R1        2
    C8(7)     R2        17
    C8(7)     R3        3
    C8(7)     R4        3
    C8(7)     R7        13
    C8(7)     R8        18
    C9(10)    OBJ       -5
    C9(10)    R0        -7
    C9(10)    R1        17
    C9(10)    R2        18
    C9(10)    R3        5
    C9(10)    R4        1
    C9(10)    R5        2
    C9(10)    R6        11
    C9(10)    R7        8
    C9(10)    R8        7
    C9(10)    R9        -1
    C10(1)    R1        1
    C11(1)    R2        1
    C12(1)    R3        1
    C13(1)    R4        1
    C14(1)    R5        1
    C15(1)    R6        1
    C16(1)    R7        1
    C17(1)    R8        1
    C18(1)    R9        1
    C19(1)    R10       1
RHS
    RHS1      R0        1.6265196078431373e+02
    RHS1      R1        97
    RHS1      R2        63
    RHS1      R3        88
    RHS1      R4        94
    RHS1      R5        51
    RHS1      R6        56
    RHS1      R7        52
    RHS1      R8        74
    RHS1      R9        51
    RHS1      R10       1
BOUNDS
 UP BND1      I0(5)     1
 UP BND1      I1(6)     1
 UP BND1      I2(5)     1
 UP BND1      I3(7)     1
 UP BND1      I4(7)     1
ENDATA
